\ LP format - for model browsing. Use MPS format to capture full model detail.
Minimize
  C24(1)
Subject To
 c0: B0(10) + B1(10) = 1
 c1: B2(8) + B3(8) = 1
 c2: B4(10) + B5(10) = 1
 c3: B6(8) + B7(8) = 1
 c4: - 65000 B0(10) + C16(10) <= 0
 c5: - 65000 B1(10) + C17(10) <= 0
 c6: - 65000 B2(8) + C18(10) <= 0
 c7: - 65000 B3(8) + C19(10) <= 0
 c8: - 65000 B4(10) + C20(10) <= 0
 c9: - 65000 B5(10) + C21(10) <= 0
 c10: - 65000 B6(8) + C22(10) <= 0
 c11: - 65000 B7(8) + C23(10) <= 0
 c12: - 25 B0(10) - 37 B1(10) - C16(10) - C17(10) + C18(10) + C19(10) >= 0
 c13: - 65025 B0(10) - 37 B1(10) - 65000 B2(8) - C16(10) - C17(10)
   + C18(10) + C19(10) >= -129997
 c14: - 25 B0(10) - 65037 B1(10) - 65000 B3(8) - C16(10) - C17(10)
   + C18(10) + C19(10) >= -129997
 c15: - 45 B4(10) - 65 B5(10) - C20(10) - C21(10) + C22(10) + C23(10) >= 0
 c16: - 65045 B4(10) - 65 B5(10) - 65000 B6(8) - C20(10) - C21(10)
   + C22(10) + C23(10) >= -129996
 c17: - 45 B4(10) - 65065 B5(10) - 65000 B7(8) - C20(10) - C21(10)
   + C22(10) + C23(10) >= -129996
 c18: - 65000 B0(10) - 65000 B4(10) - 65000 B8(2) + C16(10) - C20(10)
   >= -194952
 c19: - 65000 B0(10) - 65000 B4(10) + 65000 B8(2) - C16(10) + C20(10)
   >= -129971
 c20: - 65000 B1(10) - 65000 B5(10) - 65000 B9(2) + C17(10) - C21(10)
   >= -194932
 c21: - 65000 B1(10) - 65000 B5(10) + 65000 B9(2) - C17(10) + C21(10)
   >= -129959
 c22: - 65000 B0(10) - 65000 B6(8) - 65000 B10(2) + C16(10) - C22(10)
   >= -194975
 c23: - 65000 B0(10) - 65000 B6(8) + 65000 B10(2) - C16(10) + C22(10)
   >= -129971
 c24: - 65000 B1(10) - 65000 B7(8) - 65000 B11(2) + C17(10) - C23(10)
   >= -194932
 c25: - 65000 B1(10) - 65000 B7(8) + 65000 B11(2) - C17(10) + C23(10)
   >= -129960
 c26: - 65000 B2(8) - 65000 B4(10) - 65000 B12(2) + C18(10) - C20(10)
   >= -194952
 c27: - 65000 B2(8) - 65000 B4(10) + 65000 B12(2) - C18(10) + C20(10)
   >= -129964
 c28: - 65000 B3(8) - 65000 B5(10) - 65000 B13(2) + C19(10) - C21(10)
   >= -194932
 c29: - 65000 B3(8) - 65000 B5(10) + 65000 B13(2) - C19(10) + C21(10)
   >= -129973
 c30: - 65000 B2(8) - 65000 B6(8) - 65000 B14(2) + C18(10) - C22(10)
   >= -194975
 c31: - 65000 B2(8) - 65000 B6(8) + 65000 B14(2) - C18(10) + C22(10)
   >= -129964
 c32: - 65000 B3(8) - 65000 B7(8) - 65000 B15(2) + C19(10) - C23(10)
   >= -194931
 c33: - 65000 B3(8) - 65000 B7(8) + 65000 B15(2) - C19(10) + C23(10)
   >= -129973
 c34: C16(10) >= 0
 c35: C17(10) >= 0
 c36: C18(10) >= 0
 c37: C19(10) >= 0
 c38: C20(10) >= 0
 c39: C21(10) >= 0
 c40: C22(10) >= 0
 c41: C23(10) >= 0
 c42: - 25 B0(10) - 37 B1(10) - 32 B2(8) - 24 B3(8) - 45 B4(10) - 65 B5(10)
   - 21 B6(8) - 65 B7(8) - C16(10) - C17(10) - C18(10) - C19(10) - C20(10)
   - C21(10) - C22(10) - C23(10) + C24(1) = 0
Bounds
Binaries
 B0(10) B1(10) B2(8) B3(8) B4(10) B5(10) B6(8) B7(8) B8(2) B9(2) B10(2)
 B11(2) B12(2) B13(2) B14(2) B15(2)
End
